
Gurobi 9.1.2 (linux64) logging started Wed Aug  9 14:28:40 2023

Changed value of parameter LogFile to max-ls_r=('7', '1').log
   Prev:   Default: 
Changed value of parameter MIPFocus to 1
   Prev: 0  Min: 0  Max: 3  Default: 0
Changed value of parameter Threads to 32
   Prev: 0  Min: 0  Max: 1024  Default: 0
Changed value of parameter TimeLimit to 3600.0
   Prev: inf  Min: 0.0  Max: inf  Default: inf
Warning: variable name "X[('6', '6'),('7', '6')]" has a space
Warning: constraint name "flow-constr-t0-v('6', '3')" has a space
Warning: to let Gurobi read it back, use rlp format
Gurobi Optimizer version 9.1.2 build v9.1.2rc0 (linux64)
Thread count: 16 physical cores, 32 logical processors, using up to 32 threads
Optimize a model with 2955 rows, 2688 columns and 10316 nonzeros
Model fingerprint: 0x5db2218b
Variable types: 256 continuous, 2432 integer (2432 binary)
Coefficient statistics:
  Matrix range     [1e+00, 7e+04]
  Objective range  [2e-01, 2e-01]
  Bounds range     [1e+00, 3e+04]
  RHS range        [1e+00, 7e+04]
Presolve removed 255 rows and 252 columns
Presolve time: 0.06s
Presolved: 2700 rows, 2436 columns, 18460 nonzeros
Variable types: 256 continuous, 2180 integer (2180 binary)

Root relaxation: objective 6.400000e+01, 150 iterations, 0.00 seconds

    Nodes    |    Current Node    |     Objective Bounds      |     Work
 Expl Unexpl |  Obj  Depth IntInf | Incumbent    BestBd   Gap | It/Node Time

     0     0   64.00000    0   30          -   64.00000      -     -    0s
H    0     0                     118.7500000   64.00000  46.1%     -    0s
H    0     0                     118.0000000   64.00000  45.8%     -    0s
H    0     0                     116.5000000   64.00000  45.1%     -    0s
     0     0   64.00000    0   85  116.50000   64.00000  45.1%     -    0s
H    0     0                      97.2500000   64.00000  34.2%     -    0s
     0     0   64.00000    0   97   97.25000   64.00000  34.2%     -    0s
H    0     0                      96.5000000   64.00000  33.7%     -    0s
     0     0   64.00000    0   44   96.50000   64.00000  33.7%     -    0s
H    0     0                      84.2500000   64.00000  24.0%     -    0s
H    0     0                      83.5416667   64.00000  23.4%     -    0s
H    0     0                      82.2916667   64.00000  22.2%     -    0s
     0     0   64.00000    0   51   82.29167   64.00000  22.2%     -    0s
     0     0   64.00000    0   28   82.29167   64.00000  22.2%     -    0s
H    0     0                      76.7500000   64.00000  16.6%     -    0s
     0     0   64.00000    0   38   76.75000   64.00000  16.6%     -    0s
H    0     0                      76.6250000   64.00000  16.5%     -    1s
     0     0   64.00000    0   28   76.62500   64.00000  16.5%     -    1s
     0     0   64.00000    0   32   76.62500   64.00000  16.5%     -    1s
     0     0   64.00000    0   28   76.62500   64.00000  16.5%     -    1s
H    0     0                      76.5000000   64.00000  16.3%     -    1s
     0     2   64.00000    0   28   76.50000   64.00000  16.3%     -    1s
H   35    62                      76.2500000   64.00000  16.1%  15.3    2s
H   52    62                      75.8125000   64.00000  15.6%  11.2    2s
H   95   126                      73.7000000   64.00000  13.2%   7.8    5s
H   96   126                      73.5000000   64.00000  12.9%   7.7    5s
H   98   126                      72.2500000   64.00000  11.4%   7.6    5s
H  100   126                      72.0000000   64.00000  11.1%   7.5    5s
H  103   126                      71.2613636   64.00000  10.2%   7.3    5s
H  106   126                      71.2500000   64.00000  10.2%   7.1    5s
H  113   126                      69.6250000   64.00000  8.08%   6.8    5s
H  159   190                      69.5000000   64.00000  7.91%   5.3    7s
H  160   190                      69.0000000   64.00000  7.25%   5.3    7s
H  164   190                      68.7500000   64.00000  6.91%   5.2    7s
H  182   190                      68.5000000   64.00000  6.57%   4.8    7s
H  641   659                      68.2500000   64.00000  6.23%   2.8    9s
H  642   659                      68.0000000   64.00000  5.88%   2.8    9s
H  643   659                      67.5000000   64.00000  5.19%   2.8    9s
H  672   691                      66.7500000   64.00000  4.12%   2.8   10s
H  673   691                      66.5000000   64.00000  3.76%   2.8   10s
H  675   691                      66.2500000   64.00000  3.40%   2.8   10s
H  688   691                      66.0000000   64.00000  3.03%   2.8   10s
 10226  9159   64.00000   85  125   66.00000   64.00000  3.03%   4.5   15s
 10330  9248   64.00000   18   53   66.00000   64.00000  3.03%   6.6   20s
 10826  9459   64.00000   25   56   66.00000   64.00000  3.03%   6.9   25s
H10833  8998                      65.9999920   64.00000  3.03%   6.9   25s
 17426 12244   65.50000  129   92   65.99999   64.00000  3.03%   8.5   30s
 27085 16159   64.00000  332   61   65.99999   64.00000  3.03%   9.3   36s
 45629 26906     cutoff   52        65.99999   64.00000  3.03%  10.0   40s
 46508 27465     cutoff   78        65.99999   64.00000  3.03%  10.0   45s
 57285 34387   64.00000   71   88   65.99999   64.00000  3.03%  10.5   52s
 60582 43139     cutoff   77        65.99999   64.00000  3.03%  10.7   55s
 75897 47349   65.75000  105   90   65.99999   64.00000  3.03%  11.2   60s
 86570 54326   64.00000  152   53   65.99999   64.00000  3.03%  11.4   71s
 91831 66080   64.50000  105   99   65.99999   64.00000  3.03%  11.7   75s
 120258 73883   64.00000   92   51   65.99999   64.00000  3.03%  12.5   80s
 121526 79902   64.75000  171   40   65.99999   64.00000  3.03%  12.5   85s
 140555 83596   65.50000  208   99   65.99999   64.00000  3.03%  13.1   92s
 143393 89308   64.00000   67   65   65.99999   64.00000  3.03%  13.2   95s
 160745 98885   64.00000  113   90   65.99999   64.00000  3.03%  13.3  100s
 167403 102135   64.00000   91   90   65.99999   64.00000  3.03%  13.4  105s
 173302 105762     cutoff   86        65.99999   64.00000  3.03%  13.4  110s
 193328 113826   64.00000  113   99   65.99999   64.00000  3.03%  13.8  116s
 194373 116427 infeasible  120        65.99999   64.00000  3.03%  13.8  120s
 205623 120261   65.25000  172   77   65.99999   64.00000  3.03%  14.0  126s
 213277 127694   64.00000  116  102   65.99999   64.00000  3.03%  14.1  131s
H223921 125551                      65.7500000   64.00000  2.66%  14.3  133s
H227653 102920                      65.0000000   64.00000  1.54%  14.3  134s
H227682 97452                      64.7500000   64.00000  1.16%  14.3  134s
H227761  1799                      64.0000000   64.00000  0.00%  14.3  134s

Cutting planes:
  Learned: 23
  Gomory: 5
  Cover: 206
  Implied bound: 117
  Clique: 115
  MIR: 299
  Flow cover: 346
  GUB cover: 6
  RLT: 38
  Relax-and-lift: 650

Explored 227810 nodes (3267731 simplex iterations) in 134.92 seconds
Thread count was 32 (of 32 available processors)

Solution count 10: 64 64.75 65 ... 67.5

Optimal solution found (tolerance 1.00e-04)
Best objective 6.400000000000e+01, best bound 6.400000000000e+01, gap 0.0000%
